p cnf 12 50 
2 -5 3 0
9 -7 11 0
-11 -3 7 0
9 -2 1 0
9 -11 -12 0
-6 5 3 0
-12 6 1 0
8 1 -4 0
12 7 1 0
8 -12 -1 0
-7 -3 10 0
9 2 6 0
12 2 1 0
-5 2 -7 0
6 2 11 0
3 -8 -4 0
-10 -5 2 0
-3 5 10 0
12 4 -7 0
1 -11 -4 0
-1 5 2 0
5 9 -8 0
-4 -12 10 0
3 -12 11 0
9 10 -3 0
-9 5 -12 0
-9 -8 12 0
10 -7 -5 0
1 -12 2 0
-10 8 -7 0
9 -6 2 0
-2 -1 11 0
5 10 2 0
4 -10 -7 0
-11 6 10 0
-1 4 -2 0
-3 6 1 0
2 8 11 0
4 12 -2 0
8 4 -9 0
-1 -12 -9 0
12 6 -9 0
6 -5 11 0
-5 -9 3 0
12 -4 3 0
-3 -11 8 0
1 -4 -8 0
-6 -11 -3 0
-11 7 12 0
5 -9 -3 0
